\ENCODING=ISO-8859-1
\Problem name: SVM

Minimize
 obj: 0.001 ksi0 + 0.001 ksi1 + 0.001 ksi2 + 0.001 ksi3 + 0.001 ksi4
      + 0.001 ksi5 + 0.001 ksi6 + 0.001 ksi7 + 0.001 ksi8 + 0.001 ksi9
      + 0.001 ksi10 + 0.001 ksi11 + 0.001 ksi12 + 0.001 ksi13 + 0.001 ksi14
      + 0.001 ksi15 + 0.001 ksi16 + 0.001 ksi17 + 0.001 ksi18 + 0.001 ksi19
      + 0.001 ksi20 + 0.001 ksi21 + 0.001 ksi22 + 0.001 ksi23 + 0.001 ksi24
      + 0.001 ksi25 + 0.001 ksi26 + 0.001 ksi27 + 0.001 ksi28 + 0.001 ksi29
      + 0.001 ksi30 + 0.001 ksi31 + 0.001 ksi32 + 0.001 ksi33 + 0.001 ksi34
      + 0.001 ksi35 + 0.001 ksi36 + 0.001 ksi37 + 0.001 ksi38 + 0.001 ksi39
      + 0.001 ksi40 + 0.001 ksi41 + 0.001 ksi42 + 0.001 ksi43 + 0.001 ksi44
      + 0.001 ksi45 + 0.001 ksi46 + 0.001 ksi47 + 0.001 ksi48 + 0.001 ksi49
      + 0.001 ksi50 + 0.001 ksi51 + 0.001 ksi52 + 0.001 ksi53 + 0.001 ksi54
      + 0.001 ksi55 + 0.001 ksi56 + 0.001 ksi57 + 0.001 ksi58 + 0.001 ksi59
      + 0.001 ksi60 + 0.001 ksi61 + 0.001 ksi62 + 0.001 ksi63 + 0.001 ksi64
      + 0.001 ksi65 + 0.001 ksi66 + 0.001 ksi67 + 0.001 ksi68 + 0.001 ksi69
      + 0.001 ksi70 + 0.001 ksi71 + 0.001 ksi72 + 0.001 ksi73 + 0.001 ksi74
      + 0.001 ksi75 + 0.001 ksi76 + 0.001 ksi77 + 0.001 ksi78 + 0.001 ksi79
      + 0.001 ksi80 + 0.001 ksi81 + 0.001 ksi82 + 0.001 ksi83 + 0.001 ksi84
      + 0.001 ksi85 + 0.001 ksi86 + 0.001 ksi87 + 0.001 ksi88 + 0.001 ksi89
      + 0.001 ksi90 + 0.001 ksi91 + 0.001 ksi92 + 0.001 ksi93 + 0.001 ksi94
      + 0.001 ksi95 + 0.001 ksi96 + 0.001 ksi97 + 0.001 ksi98 + 0.001 ksi99
      + 0.001 ksi100 + 0.001 ksi101 + 0.001 ksi102 + 0.001 ksi103
      + 0.001 ksi104 + 0.001 ksi105 + 0.001 ksi106 + 0.001 ksi107
      + 0.001 ksi108 + 0.001 ksi109 + 0.001 ksi110 + 0.001 ksi111
      + 0.001 ksi112 + 0.001 ksi113 + 0.001 ksi114 + 0.001 ksi115
      + 0.001 ksi116 + 0.001 ksi117 + 0.001 ksi118 + 0.001 ksi119
      + 0.001 ksi120 + 0.001 ksi121 + 0.001 ksi122 + 0.001 ksi123
      + 0.001 ksi124 + 0.001 ksi125 + 0.001 ksi126 + 0.001 ksi127
      + 0.001 ksi128 + 0.001 ksi129 + 0.001 ksi130 + 0.001 ksi131
      + 0.001 ksi132 + 0.001 ksi133 + 0.001 ksi134 + 0.001 ksi135
      + 0.001 ksi136 + 0.001 ksi137 + 0.001 ksi138 + 0.001 ksi139
      + 0.001 ksi140 + 0.001 ksi141 + 0.001 ksi142 + 0.001 ksi143
      + 0.001 ksi144 + 0.001 ksi145 + 0.001 ksi146 + 0.001 ksi147
      + 0.001 ksi148 + 0.001 ksi149 + 0.001 ksi150 + 0.001 ksi151
      + 0.001 ksi152 + 0.001 ksi153 + 0.001 ksi154 + 0.001 ksi155
      + 0.001 ksi156 + 0.001 ksi157 + 0.001 ksi158 + 0.001 ksi159
      + 0.001 ksi160 + 0.001 ksi161 + 0.001 ksi162 + 0.001 ksi163
      + 0.001 ksi164 + 0.001 ksi165 + 0.001 ksi166 + 0.001 ksi167
      + 0.001 ksi168 + 0.001 ksi169 + 0.001 ksi170 + 0.001 ksi171
      + 0.001 ksi172 + 0.001 ksi173 + 0.001 ksi174 + 0.001 ksi175
      + 0.001 ksi176 + 0.001 ksi177 + 0.001 ksi178 + 0.001 ksi179
      + 0.001 ksi180 + 0.001 ksi181 + 0.001 ksi182 + 0.001 ksi183
      + 0.001 ksi184 + 0.001 ksi185 + 0.001 ksi186 + 0.001 ksi187
      + 0.001 ksi188 + 0.001 ksi189 + 0.001 ksi190 + 0.001 ksi191
      + 0.001 ksi192 + 0.001 ksi193 + 0.001 ksi194 + 0.001 ksi195
      + 0.001 ksi196 + 0.001 ksi197 + 0.001 ksi198 + 0.001 ksi199
      + 0.001 ksi200 + 0.001 ksi201 + 0.001 ksi202 + 0.001 ksi203
      + 0.001 ksi204 + 0.001 ksi205 + 0.001 ksi206 + 0.001 ksi207
      + 0.001 ksi208 + 0.001 ksi209 + 0.001 ksi210 + 0.001 ksi211
      + 0.001 ksi212 + 0.001 ksi213 + 0.001 ksi214 + 0.001 ksi215
      + 0.001 ksi216 + 0.001 ksi217 + 0.001 ksi218 + 0.001 ksi219
      + 0.001 ksi220 + 0.001 ksi221 + 0.001 ksi222 + 0.001 ksi223
      + 0.001 ksi224 + 0.001 ksi225 + 0.001 ksi226 + 0.001 ksi227
      + 0.001 ksi228 + 0.001 ksi229 + 0.001 ksi230 + 0.001 ksi231
      + 0.001 ksi232 + 0.001 ksi233 + 0.001 ksi234 + 0.001 ksi235
      + 0.001 ksi236 + 0.001 ksi237 + 0.001 ksi238 + 0.001 ksi239
      + 0.001 ksi240 + 0.001 ksi241 + 0.001 ksi242 + 0.001 ksi243
      + 0.001 ksi244 + 0.001 ksi245 + 0.001 ksi246 + 0.001 ksi247
      + 0.001 ksi248 + 0.001 ksi249 + 0.001 ksi250 + 0.001 ksi251
      + 0.001 ksi252 + 0.001 ksi253 + 0.001 ksi254 + 0.001 ksi255
      + 0.001 ksi256 + 0.001 ksi257 + 0.001 ksi258 + 0.001 ksi259
      + 0.001 ksi260 + 0.001 ksi261 + 0.001 ksi262 + 0.001 ksi263
      + 0.001 ksi264 + 0.001 ksi265 + 0.001 ksi266 + 0.001 ksi267
      + 0.001 ksi268 + 0.001 ksi269 + [ w0 ^2 + w1 ^2 + w2 ^2 + w3 ^2 + w4 ^2
      + w5 ^2 + w6 ^2 + w7 ^2 + w8 ^2 + w9 ^2 + w10 ^2 + w11 ^2 + w12 ^2
      + w13 ^2 + w14 ^2 + w15 ^2 + w16 ^2 + w17 ^2 + w18 ^2 + w19 ^2 ] / 2
Subject To
 c1:   - 70 w0 - w1 - w5 - 130 w6 - 322 w7 - w11 - 109 w12 - 2.4 w14 - 2 w15
       - 3 w16 - w17 - b + ksi0 >= 1
 c2:   67 w0 + w4 + 115 w6 + 564 w7 + w11 + 160 w12 + 1.6 w14 + 2 w15 + w19 + b
       + ksi1 >= 1
 c3:   - 57 w0 - w1 - w3 - 124 w6 - 261 w7 - w9 - 141 w12 - 0.3 w14 - w15 - w19
       - b + ksi2 >= 1
 c4:   64 w0 + w1 + w5 + 128 w6 + 263 w7 + w9 + 105 w12 + w13 + 0.2 w14 + 2 w15
       + w16 + w19 + b + ksi3 >= 1
 c5:   74 w0 + w3 + 120 w6 + 269 w7 + w11 + 121 w12 + w13 + 0.2 w14 + w15 + w16
       + w17 + b + ksi4 >= 1
 c6:   65 w0 + w1 + w5 + 120 w6 + 177 w7 + w9 + 140 w12 + 0.4 w14 + w15 + w19
       + b + ksi5 >= 1
 c7:   - 56 w0 - w1 - w4 - 130 w6 - 256 w7 - w8 - w11 - 142 w12 - w13 - 0.6 w14
       - 2 w15 - w16 - w18 - b + ksi6 >= 1
 c8:   - 59 w0 - w1 - w5 - 110 w6 - 239 w7 - w11 - 142 w12 - w13 - 1.2 w14
       - 2 w15 - w16 - w19 - b + ksi7 >= 1
 c9:   - 60 w0 - w1 - w5 - 140 w6 - 293 w7 - w11 - 170 w12 - 1.2 w14 - 2 w15
       - 2 w16 - w19 - b + ksi8 >= 1
 c10:  - 63 w0 - w5 - 150 w6 - 407 w7 - w11 - 154 w12 - 4 w14 - 2 w15 - 3 w16
       - w19 - b + ksi9 >= 1
 c11:  59 w0 + w1 + w5 + 135 w6 + 234 w7 + w9 + 161 w12 + 0.5 w14 + 2 w15 + w19
       + b + ksi10 >= 1
 c12:  53 w0 + w1 + w5 + 142 w6 + 226 w7 + w11 + 111 w12 + w13 + w15 + w19 + b
       + ksi11 >= 1
 c13:  44 w0 + w1 + w4 + 140 w6 + 235 w7 + w11 + 180 w12 + w15 + w17 + b
       + ksi12 >= 1
 c14:  - 61 w0 - w1 - w2 - 134 w6 - 234 w7 - w9 - 145 w12 - 2.6 w14 - 2 w15
       - 2 w16 - w17 - b + ksi13 >= 1
 c15:  57 w0 + w5 + 128 w6 + 303 w7 + w11 + 159 w12 + w15 + w16 + w17 + b
       + ksi14 >= 1
 c16:  71 w0 + w5 + 112 w6 + 149 w7 + w9 + 125 w12 + 1.6 w14 + 2 w15 + w17 + b
       + ksi15 >= 1
 c17:  - 46 w0 - w1 - w5 - 140 w6 - 311 w7 - w9 - 120 w12 - w13 - 1.8 w14
       - 2 w15 - 2 w16 - w19 - b + ksi16 >= 1
 c18:  - 53 w0 - w1 - w5 - 140 w6 - 203 w7 - w8 - w11 - 155 w12 - w13 - 3.1 w14
       - 3 w15 - w19 - b + ksi17 >= 1
 c19:  64 w0 + w1 + w2 + 110 w6 + 211 w7 + w11 + 144 w12 + w13 + 1.8 w14
       + 2 w15 + w17 + b + ksi18 >= 1
 c20:  40 w0 + w1 + w2 + 140 w6 + 199 w7 + w9 + 178 w12 + w13 + 1.4 w14 + w15
       + w19 + b + ksi19 >= 1
 c21:  - 67 w0 - w1 - w5 - 120 w6 - 229 w7 - w11 - 129 w12 - w13 - 2.6 w14
       - 2 w15 - 2 w16 - w19 - b + ksi20 >= 1
 c22:  48 w0 + w1 + w3 + 130 w6 + 245 w7 + w11 + 180 w12 + 0.2 w14 + 2 w15
       + w17 + b + ksi21 >= 1
 c23:  43 w0 + w1 + w5 + 115 w6 + 303 w7 + w9 + 181 w12 + 1.2 w14 + 2 w15 + w17
       + b + ksi22 >= 1
 c24:  47 w0 + w1 + w5 + 112 w6 + 204 w7 + w9 + 143 w12 + 0.1 w14 + w15 + w17
       + b + ksi23 >= 1
 c25:  54 w0 + w3 + 132 w6 + 288 w7 + w8 + w11 + 159 w12 + w13 + w15 + w16
       + w17 + b + ksi24 >= 1
 c26:  48 w0 + w4 + 130 w6 + 275 w7 + w9 + 139 w12 + 0.2 w14 + w15 + w17 + b
       + ksi25 >= 1
 c27:  46 w0 + w5 + 138 w6 + 243 w7 + w11 + 152 w12 + w13 + 2 w15 + w17 + b
       + ksi26 >= 1
 c28:  51 w0 + w4 + 120 w6 + 295 w7 + w11 + 157 w12 + 0.6 w14 + w15 + w17 + b
       + ksi27 >= 1
 c29:  - 58 w0 - w1 - w4 - 112 w6 - 230 w7 - w11 - 165 w12 - 2.5 w14 - 2 w15
       - w16 - w19 - b + ksi28 >= 1
 c30:  71 w0 + w4 + 110 w6 + 265 w7 + w8 + w11 + 130 w12 + w15 + w16 + w17 + b
       + ksi29 >= 1
 c31:  - 57 w0 - w1 - w4 - 128 w6 - 229 w7 - w11 - 150 w12 - 0.4 w14 - 2 w15
       - w16 - w19 - b + ksi30 >= 1
 c32:  66 w0 + w1 + w5 + 160 w6 + 228 w7 + w11 + 138 w12 + 2.3 w14 + w15 + w18
       + b + ksi31 >= 1
 c33:  37 w0 + w4 + 120 w6 + 215 w7 + w9 + 170 w12 + w15 + w17 + b + ksi32 >= 1
 c34:  - 59 w0 - w1 - w5 - 170 w6 - 326 w7 - w11 - 140 w12 - w13 - 3.4 w14
       - 3 w15 - w19 - b + ksi33 >= 1
 c35:  - 50 w0 - w1 - w5 - 144 w6 - 200 w7 - w11 - 126 w12 - w13 - 0.9 w14
       - 2 w15 - w19 - b + ksi34 >= 1
 c36:  - 48 w0 - w1 - w5 - 130 w6 - 256 w7 - w8 - w11 - 150 w12 - w13 - w15
       - 2 w16 - w19 - b + ksi35 >= 1
 c37:  - 61 w0 - w1 - w5 - 140 w6 - 207 w7 - w11 - 138 w12 - w13 - 1.9 w14
       - w15 - w16 - w19 - b + ksi36 >= 1
 c38:  - 59 w0 - w1 - w2 - 160 w6 - 273 w7 - w11 - 125 w12 - w15 - w17 - b
       + ksi37 >= 1
 c39:  42 w0 + w1 + w4 + 130 w6 + 180 w7 + w9 + 150 w12 + w15 + w17 + b + ksi38
       >= 1
 c40:  48 w0 + w1 + w5 + 122 w6 + 222 w7 + w11 + 186 w12 + w15 + w17 + b
       + ksi39 >= 1
 c41:  - 40 w0 - w1 - w5 - 152 w6 - 223 w7 - w9 - 181 w12 - w15 - w19 - b
       + ksi40 >= 1
 c42:  62 w0 + w5 + 124 w6 + 209 w7 + w9 + 163 w12 + w15 + w17 + b + ksi41 >= 1
 c43:  44 w0 + w1 + w4 + 130 w6 + 233 w7 + w9 + 179 w12 + w13 + 0.4 w14 + w15
       + w17 + b + ksi42 >= 1
 c44:  46 w0 + w1 + w3 + 101 w6 + 197 w7 + w8 + w9 + 156 w12 + w15 + w19 + b
       + ksi43 >= 1
 c45:  - 59 w0 - w1 - w4 - 126 w6 - 218 w7 - w8 - w9 - 134 w12 - 2.2 w14
       - 2 w15 - w16 - w18 - b + ksi44 >= 1
 c46:  58 w0 + w1 + w4 + 140 w6 + 211 w7 + w8 + w11 + 165 w12 + w15 + w17 + b
       + ksi45 >= 1
 c47:  - 49 w0 - w1 - w4 - 118 w6 - 149 w7 - w11 - 126 w12 - 0.8 w14 - w15
       - 3 w16 - w17 - b + ksi46 >= 1
 c48:  - 44 w0 - w1 - w5 - 110 w6 - 197 w7 - w11 - 177 w12 - w15 - w16 - w17
       - b + ksi47 >= 1
 c49:  - 66 w0 - w1 - w3 - 160 w6 - 246 w7 - w9 - 120 w12 - w13 - 2 w15 - 3 w16
       - w18 - b + ksi48 >= 1
 c50:  - 65 w0 - w5 - 150 w6 - 225 w7 - w11 - 114 w12 - w14 - 2 w15 - 3 w16
       - w19 - b + ksi49 >= 1
 c51:  - 42 w0 - w1 - w5 - 136 w6 - 315 w7 - w9 - 125 w12 - w13 - 1.8 w14
       - 2 w15 - w18 - b + ksi50 >= 1
 c52:  52 w0 + w1 + w3 + 128 w6 + 205 w7 + w8 + w9 + 184 w12 + w15 + w17 + b
       + ksi51 >= 1
 c53:  65 w0 + w4 + 140 w6 + 417 w7 + w8 + w11 + 157 w12 + 0.8 w14 + w15 + w16
       + w17 + b + ksi52 >= 1
 c54:  63 w0 + w3 + 140 w6 + 195 w7 + w9 + 179 w12 + w15 + 2 w16 + w17 + b
       + ksi53 >= 1
 c55:  45 w0 + w3 + 130 w6 + 234 w7 + w11 + 175 w12 + 0.6 w14 + 2 w15 + w17 + b
       + ksi54 >= 1
 c56:  41 w0 + w3 + 105 w6 + 198 w7 + w9 + 168 w12 + w15 + w16 + w17 + b
       + ksi55 >= 1
 c57:  - 61 w0 - w1 - w5 - 138 w6 - 166 w7 - w11 - 125 w12 - w13 - 3.6 w14
       - 2 w15 - w16 - w17 - b + ksi56 >= 1
 c58:  60 w0 + w4 + 120 w6 + 178 w7 + w8 + w9 + 96 w12 + w15 + w17 + b + ksi57
       >= 1
 c59:  - 59 w0 - w5 - 174 w6 - 249 w7 - w9 - 143 w12 - w13 - 2 w15 - w17 - b
       + ksi58 >= 1
 c60:  - 62 w0 - w1 - w3 - 120 w6 - 281 w7 - w11 - 103 w12 - 1.4 w14 - 2 w15
       - w16 - w19 - b + ksi59 >= 1
 c61:  57 w0 + w1 + w4 + 150 w6 + 126 w7 + w8 + w9 + 173 w12 + 0.2 w14 + w15
       + w16 + w19 + b + ksi60 >= 1
 c62:  - 51 w0 - w5 - 130 w6 - 305 w7 - w9 - 142 w12 - w13 - 1.2 w14 - 2 w15
       - w19 - b + ksi61 >= 1
 c63:  44 w0 + w1 + w4 + 120 w6 + 226 w7 + w9 + 169 w12 + w15 + w17 + b + ksi62
       >= 1
 c64:  60 w0 + w2 + 150 w6 + 240 w7 + w9 + 171 w12 + 0.9 w14 + w15 + w17 + b
       + ksi63 >= 1
 c65:  63 w0 + w1 + w2 + 145 w6 + 233 w7 + w8 + w11 + 150 w12 + 2.3 w14 + 3 w15
       + w18 + b + ksi64 >= 1
 c66:  - 57 w0 - w1 - w5 - 150 w6 - 276 w7 - w11 - 112 w12 - w13 - 0.6 w14
       - 2 w15 - w16 - w18 - b + ksi65 >= 1
 c67:  51 w0 + w1 + w5 + 140 w6 + 261 w7 + w11 + 186 w12 + w13 + w15 + w17 + b
       + ksi66 >= 1
 c68:  - 58 w0 - w3 - 136 w6 - 319 w7 - w8 - w11 - 152 w12 - w15 - 2 w16 - w17
       - b + ksi67 >= 1
 c69:  44 w0 + w4 + 118 w6 + 242 w7 + w9 + 149 w12 + 0.3 w14 + 2 w15 + w16
       + w17 + b + ksi68 >= 1
 c70:  - 47 w0 - w1 - w4 - 108 w6 - 243 w7 - w9 - 152 w12 - w15 - w17 - b
       + ksi69 >= 1
 c71:  - 61 w0 - w1 - w5 - 120 w6 - 260 w7 - w9 - 140 w12 - w13 - 3.6 w14
       - 2 w15 - w16 - w19 - b + ksi70 >= 1
 c72:  57 w0 + w5 + 120 w6 + 354 w7 + w9 + 163 w12 + w13 + 0.6 w14 + w15 + w17
       + b + ksi71 >= 1
 c73:  70 w0 + w1 + w3 + 156 w6 + 245 w7 + w11 + 143 w12 + w15 + w17 + b
       + ksi72 >= 1
 c74:  76 w0 + w4 + 140 w6 + 197 w7 + w10 + 116 w12 + 1.1 w14 + 2 w15 + w17 + b
       + ksi73 >= 1
 c75:  67 w0 + w5 + 106 w6 + 223 w7 + w9 + 142 w12 + 0.3 w14 + w15 + 2 w16
       + w17 + b + ksi74 >= 1
 c76:  - 45 w0 - w1 - w5 - 142 w6 - 309 w7 - w11 - 147 w12 - w13 - 2 w15
       - 3 w16 - w19 - b + ksi75 >= 1
 c77:  45 w0 + w1 + w5 + 104 w6 + 208 w7 + w11 + 148 w12 + w13 + 3 w14 + 2 w15
       + w17 + b + ksi76 >= 1
 c78:  39 w0 + w4 + 94 w6 + 199 w7 + w9 + 179 w12 + w15 + w17 + b + ksi77 >= 1
 c79:  42 w0 + w4 + 120 w6 + 209 w7 + w9 + 173 w12 + 2 w15 + w17 + b + ksi78
       >= 1
 c80:  56 w0 + w1 + w3 + 120 w6 + 236 w7 + w9 + 178 w12 + 0.8 w14 + w15 + w17
       + b + ksi79 >= 1
 c81:  - 58 w0 - w1 - w5 - 146 w6 - 218 w7 - w9 - 105 w12 - 2 w14 - 2 w15 - w16
       - w19 - b + ksi80 >= 1
 c82:  - 35 w0 - w1 - w5 - 120 w6 - 198 w7 - w9 - 130 w12 - w13 - 1.6 w14
       - 2 w15 - w19 - b + ksi81 >= 1
 c83:  - 58 w0 - w1 - w5 - 150 w6 - 270 w7 - w11 - 111 w12 - w13 - 0.8 w14
       - w15 - w19 - b + ksi82 >= 1
 c84:  41 w0 + w1 + w4 + 130 w6 + 214 w7 + w11 + 168 w12 + 2 w14 + 2 w15 + w17
       + b + ksi83 >= 1
 c85:  57 w0 + w1 + w5 + 110 w6 + 201 w7 + w9 + 126 w12 + w13 + 1.5 w14 + 2 w15
       + w18 + b + ksi84 >= 1
 c86:  42 w0 + w1 + w2 + 148 w6 + 244 w7 + w11 + 178 w12 + 0.8 w14 + w15
       + 2 w16 + w17 + b + ksi85 >= 1
 c87:  62 w0 + w1 + w3 + 128 w6 + 208 w7 + w8 + w11 + 140 w12 + w15 + w17 + b
       + ksi86 >= 1
 c88:  59 w0 + w1 + w2 + 178 w6 + 270 w7 + w11 + 145 w12 + 4.2 w14 + 3 w15
       + w19 + b + ksi87 >= 1
 c89:  41 w0 + w3 + 126 w6 + 306 w7 + w9 + 163 w12 + w15 + w17 + b + ksi88 >= 1
 c90:  - 50 w0 - w1 - w5 - 150 w6 - 243 w7 - w11 - 128 w12 - 2.6 w14 - 2 w15
       - w19 - b + ksi89 >= 1
 c91:  59 w0 + w1 + w3 + 140 w6 + 221 w7 + w9 + 164 w12 + w13 + w15 + w17 + b
       + ksi90 >= 1
 c92:  - 61 w0 - w5 - 130 w6 - 330 w7 - w11 - 169 w12 - w15 - w17 - b + ksi91
       >= 1
 c93:  - 54 w0 - w1 - w5 - 124 w6 - 266 w7 - w11 - 109 w12 - w13 - 2.2 w14
       - 2 w15 - w16 - w19 - b + ksi92 >= 1
 c94:  - 54 w0 - w1 - w5 - 110 w6 - 206 w7 - w11 - 108 w12 - w13 - 2 w15 - w16
       - w17 - b + ksi93 >= 1
 c95:  - 52 w0 - w1 - w5 - 125 w6 - 212 w7 - w9 - 168 w12 - w14 - w15 - 2 w16
       - w19 - b + ksi94 >= 1
 c96:  - 47 w0 - w1 - w5 - 110 w6 - 275 w7 - w11 - 118 w12 - w13 - w14 - 2 w15
       - w16 - w17 - b + ksi95 >= 1
 c97:  66 w0 + w1 + w5 + 120 w6 + 302 w7 + w11 + 151 w12 + 0.4 w14 + 2 w15
       + w17 + b + ksi96 >= 1
 c98:  - 58 w0 - w1 - w5 - 100 w6 - 234 w7 - w9 - 156 w12 - 0.1 w14 - w15 - w16
       - w19 - b + ksi97 >= 1
 c99:  64 w0 + w4 + 140 w6 + 313 w7 + w9 + 133 w12 + 0.2 w14 + w15 + w19 + b
       + ksi98 >= 1
 c100: 50 w0 + w3 + 120 w6 + 244 w7 + w9 + 162 w12 + 1.1 w14 + w15 + w17 + b
       + ksi99 >= 1
 c101: 44 w0 + w4 + 108 w6 + 141 w7 + w9 + 175 w12 + 0.6 w14 + 2 w15 + w17 + b
       + ksi100 >= 1
 c102: - 67 w0 - w1 - w5 - 120 w6 - 237 w7 - w9 - 71 w12 - w14 - 2 w15 - w17
       - b + ksi101 >= 1
 c103: 49 w0 + w5 + 130 w6 + 269 w7 + w9 + 163 w12 + w15 + w17 + b + ksi102
       >= 1
 c104: - 57 w0 - w1 - w5 - 165 w6 - 289 w7 - w8 - w11 - 124 w12 - w14 - 2 w15
       - 3 w16 - w19 - b + ksi103 >= 1
 c105: - 63 w0 - w1 - w5 - 130 w6 - 254 w7 - w11 - 147 w12 - 1.4 w14 - 2 w15
       - w16 - w19 - b + ksi104 >= 1
 c106: - 48 w0 - w1 - w5 - 124 w6 - 274 w7 - w11 - 166 w12 - 0.5 w14 - 2 w15
       - w19 - b + ksi105 >= 1
 c107: 51 w0 + w1 + w4 + 100 w6 + 222 w7 + w9 + 143 w12 + w13 + 1.2 w14 + 2 w15
       + w17 + b + ksi106 >= 1
 c108: - 60 w0 - w5 - 150 w6 - 258 w7 - w11 - 157 w12 - 2.6 w14 - 2 w15 - 2 w16
       - w19 - b + ksi107 >= 1
 c109: - 59 w0 - w1 - w5 - 140 w6 - 177 w7 - w9 - 162 w12 - w13 - w15 - w16
       - w19 - b + ksi108 >= 1
 c110: 45 w0 + w3 + 112 w6 + 160 w7 + w9 + 138 w12 + 2 w15 + w17 + b + ksi109
       >= 1
 c111: - 55 w0 - w5 - 180 w6 - 327 w7 - w10 - 117 w12 - w13 - 3.4 w14 - 2 w15
       - w17 - b + ksi110 >= 1
 c112: 41 w0 + w1 + w3 + 110 w6 + 235 w7 + w9 + 153 w12 + w15 + w17 + b
       + ksi111 >= 1
 c113: - 60 w0 - w5 - 158 w6 - 305 w7 - w11 - 161 w12 - w15 - w17 - b + ksi112
       >= 1
 c114: 54 w0 + w4 + 135 w6 + 304 w7 + w8 + w9 + 170 w12 + w15 + w17 + b
       + ksi113 >= 1
 c115: 42 w0 + w1 + w3 + 120 w6 + 295 w7 + w9 + 162 w12 + w15 + w17 + b
       + ksi114 >= 1
 c116: 49 w0 + w3 + 134 w6 + 271 w7 + w9 + 162 w12 + 2 w15 + w17 + b + ksi115
       >= 1
 c117: - 46 w0 - w1 - w5 - 120 w6 - 249 w7 - w11 - 144 w12 - 0.8 w14 - w15
       - w19 - b + ksi116 >= 1
 c118: - 56 w0 - w5 - 200 w6 - 288 w7 - w8 - w11 - 133 w12 - w13 - 4 w14
       - 3 w15 - 2 w16 - w19 - b + ksi117 >= 1
 c119: 66 w0 + w2 + 150 w6 + 226 w7 + w9 + 114 w12 + 2.6 w14 + 3 w15 + w17 + b
       + ksi118 >= 1
 c120: - 56 w0 - w1 - w5 - 130 w6 - 283 w7 - w8 - w11 - 103 w12 - w13 - 1.6 w14
       - 3 w15 - w19 - b + ksi119 >= 1
 c121: - 49 w0 - w1 - w4 - 120 w6 - 188 w7 - w9 - 139 w12 - 2 w14 - 2 w15
       - 3 w16 - w19 - b + ksi120 >= 1
 c122: - 54 w0 - w1 - w5 - 122 w6 - 286 w7 - w11 - 116 w12 - w13 - 3.2 w14
       - 2 w15 - 2 w16 - w17 - b + ksi121 >= 1
 c123: - 57 w0 - w1 - w5 - 152 w6 - 274 w7 - w9 - 88 w12 - w13 - 1.2 w14
       - 2 w15 - w16 - w19 - b + ksi122 >= 1
 c124: 65 w0 + w4 + 160 w6 + 360 w7 + w11 + 151 w12 + 0.8 w14 + w15 + w17 + b
       + ksi123 >= 1
 c125: 54 w0 + w1 + w4 + 125 w6 + 273 w7 + w11 + 152 w12 + 0.5 w14 + 3 w15
       + w16 + w17 + b + ksi124 >= 1
 c126: 54 w0 + w4 + 160 w6 + 201 w7 + w9 + 163 w12 + w15 + w16 + w17 + b
       + ksi125 >= 1
 c127: - 62 w0 - w1 - w5 - 120 w6 - 267 w7 - w9 - 99 w12 - w13 - 1.8 w14
       - 2 w15 - 2 w16 - w19 - b + ksi126 >= 1
 c128: 52 w0 + w4 + 136 w6 + 196 w7 + w11 + 169 w12 + 0.1 w14 + 2 w15 + w17 + b
       + ksi127 >= 1
 c129: 52 w0 + w1 + w3 + 134 w6 + 201 w7 + w9 + 158 w12 + 0.8 w14 + w15 + w16
       + w17 + b + ksi128 >= 1
 c130: - 60 w0 - w1 - w5 - 117 w6 - 230 w7 - w8 - w9 - 160 w12 - w13 - 1.4 w14
       - w15 - 2 w16 - w19 - b + ksi129 >= 1
 c131: - 63 w0 - w5 - 108 w6 - 269 w7 - w9 - 169 w12 - w13 - 1.8 w14 - 2 w15
       - 2 w16 - w17 - b + ksi130 >= 1
 c132: - 66 w0 - w1 - w5 - 112 w6 - 212 w7 - w11 - 132 w12 - w13 - 0.1 w14
       - w15 - w16 - w17 - b + ksi131 >= 1
 c133: 42 w0 + w1 + w5 + 140 w6 + 226 w7 + w9 + 178 w12 + w15 + w17 + b
       + ksi132 >= 1
 c134: - 64 w0 - w1 - w5 - 120 w6 - 246 w7 - w11 - 96 w12 - w13 - 2.2 w14
       - 3 w15 - w16 - w17 - b + ksi133 >= 1
 c135: 54 w0 + w1 + w4 + 150 w6 + 232 w7 + w11 + 165 w12 + 1.6 w14 + w15 + w19
       + b + ksi134 >= 1
 c136: 46 w0 + w4 + 142 w6 + 177 w7 + w11 + 160 w12 + w13 + 1.4 w14 + 3 w15
       + w17 + b + ksi135 >= 1
 c137: 67 w0 + w4 + 152 w6 + 277 w7 + w9 + 172 w12 + w15 + w16 + w17 + b
       + ksi136 >= 1
 c138: - 56 w0 - w1 - w5 - 125 w6 - 249 w7 - w8 - w11 - 144 w12 - w13 - 1.2 w14
       - 2 w15 - w16 - w17 - b + ksi137 >= 1
 c139: 34 w0 + w3 + 118 w6 + 210 w7 + w9 + 192 w12 + 0.7 w14 + w15 + w17 + b
       + ksi138 >= 1
 c140: 57 w0 + w1 + w5 + 132 w6 + 207 w7 + w9 + 168 w12 + w13 + w15 + w19 + b
       + ksi139 >= 1
 c141: - 64 w0 - w1 - w5 - 145 w6 - 212 w7 - w11 - 132 w12 - 2 w14 - 2 w15
       - 2 w16 - w18 - b + ksi140 >= 1
 c142: 59 w0 + w1 + w5 + 138 w6 + 271 w7 + w11 + 182 w12 + w15 + w17 + b
       + ksi141 >= 1
 c143: - 50 w0 - w1 - w4 - 140 w6 - 233 w7 - w9 - 163 w12 - 0.6 w14 - 2 w15
       - w16 - w19 - b + ksi142 >= 1
 c144: 51 w0 + w1 + w2 + 125 w6 + 213 w7 + w11 + 125 w12 + w13 + 1.4 w14 + w15
       + w16 + w17 + b + ksi143 >= 1
 c145: - 54 w0 - w1 - w3 - 192 w6 - 283 w7 - w11 - 195 w12 - w15 - w16 - w19
       - b + ksi144 >= 1
 c146: - 53 w0 - w1 - w5 - 123 w6 - 282 w7 - w9 - 95 w12 - w13 - 2 w14 - 2 w15
       - 2 w16 - w19 - b + ksi145 >= 1
 c147: - 52 w0 - w1 - w5 - 112 w6 - 230 w7 - w9 - 160 w12 - w15 - w16 - w17 - b
       + ksi146 >= 1
 c148: - 40 w0 - w1 - w5 - 110 w6 - 167 w7 - w11 - 114 w12 - w13 - 2 w14
       - 2 w15 - w19 - b + ksi147 >= 1
 c149: - 58 w0 - w1 - w4 - 132 w6 - 224 w7 - w11 - 173 w12 - 3.2 w14 - w15
       - 2 w16 - w19 - b + ksi148 >= 1
 c150: 41 w0 + w4 + 112 w6 + 268 w7 + w11 + 172 w12 + w13 + w15 + w17 + b
       + ksi149 >= 1
 c151: 41 w0 + w1 + w4 + 112 w6 + 250 w7 + w9 + 179 w12 + w15 + w17 + b
       + ksi150 >= 1
 c152: 50 w0 + w4 + 120 w6 + 219 w7 + w9 + 158 w12 + 1.6 w14 + 2 w15 + w17 + b
       + ksi151 >= 1
 c153: 54 w0 + w4 + 108 w6 + 267 w7 + w11 + 167 w12 + w15 + w17 + b + ksi152
       >= 1
 c154: 64 w0 + w5 + 130 w6 + 303 w7 + w9 + 122 w12 + 2 w14 + 2 w15 + 2 w16
       + w17 + b + ksi153 >= 1
 c155: 51 w0 + w4 + 130 w6 + 256 w7 + w11 + 149 w12 + 0.5 w14 + w15 + w17 + b
       + ksi154 >= 1
 c156: 46 w0 + w3 + 105 w6 + 204 w7 + w9 + 172 w12 + w15 + w17 + b + ksi155
       >= 1
 c157: - 55 w0 - w1 - w5 - 140 w6 - 217 w7 - w9 - 111 w12 - w13 - 5.6 w14
       - 3 w15 - w19 - b + ksi156 >= 1
 c158: 45 w0 + w1 + w3 + 128 w6 + 308 w7 + w11 + 170 w12 + w15 + w17 + b
       + ksi157 >= 1
 c159: 56 w0 + w1 + w2 + 120 w6 + 193 w7 + w11 + 162 w12 + 1.9 w14 + 2 w15
       + w19 + b + ksi158 >= 1
 c160: - 66 w0 - w5 - 178 w6 - 228 w7 - w8 - w9 - 165 w12 - w13 - w14 - 2 w15
       - 2 w16 - w19 - b + ksi159 >= 1
 c161: - 38 w0 - w1 - w2 - 120 w6 - 231 w7 - w9 - 182 w12 - w13 - 3.8 w14
       - 2 w15 - w19 - b + ksi160 >= 1
 c162: - 62 w0 - w5 - 150 w6 - 244 w7 - w9 - 154 w12 - w13 - 1.4 w14 - 2 w15
       - w17 - b + ksi161 >= 1
 c163: 55 w0 + w1 + w3 + 130 w6 + 262 w7 + w9 + 155 w12 + w15 + w17 + b
       + ksi162 >= 1
 c164: - 58 w0 - w1 - w5 - 128 w6 - 259 w7 - w11 - 130 w12 - w13 - 3 w14
       - 2 w15 - 2 w16 - w19 - b + ksi163 >= 1
 c165: 43 w0 + w1 + w5 + 110 w6 + 211 w7 + w9 + 161 w12 + w15 + w19 + b
       + ksi164 >= 1
 c166: 64 w0 + w5 + 180 w6 + 325 w7 + w9 + 154 w12 + w13 + w15 + w17 + b
       + ksi165 >= 1
 c167: 50 w0 + w5 + 110 w6 + 254 w7 + w11 + 159 w12 + w15 + w17 + b + ksi166
       >= 1
 c168: 53 w0 + w1 + w4 + 130 w6 + 197 w7 + w8 + w11 + 152 w12 + 1.2 w14 + 3 w15
       + w17 + b + ksi167 >= 1
 c169: 45 w0 + w5 + 138 w6 + 236 w7 + w11 + 152 w12 + w13 + 0.2 w14 + 2 w15
       + w17 + b + ksi168 >= 1
 c170: - 65 w0 - w1 - w2 - 138 w6 - 282 w7 - w8 - w11 - 174 w12 - 1.4 w14
       - 2 w15 - w16 - w17 - b + ksi169 >= 1
 c171: 69 w0 + w1 + w2 + 160 w6 + 234 w7 + w8 + w11 + 131 w12 + 0.1 w14 + 2 w15
       + w16 + w17 + b + ksi170 >= 1
 c172: - 69 w0 - w1 - w4 - 140 w6 - 254 w7 - w11 - 146 w12 - 2 w14 - 2 w15
       - 3 w16 - w19 - b + ksi171 >= 1
 c173: - 67 w0 - w1 - w5 - 100 w6 - 299 w7 - w11 - 125 w12 - w13 - 0.9 w14
       - 2 w15 - 2 w16 - w17 - b + ksi172 >= 1
 c174: 68 w0 + w4 + 120 w6 + 211 w7 + w11 + 115 w12 + 1.5 w14 + 2 w15 + w17 + b
       + ksi173 >= 1
 c175: 34 w0 + w1 + w2 + 118 w6 + 182 w7 + w11 + 174 w12 + w15 + w17 + b
       + ksi174 >= 1
 c176: - 62 w0 - w5 - 138 w6 - 294 w7 - w8 - w9 - 106 w12 - 1.9 w14 - 2 w15
       - 3 w16 - w17 - b + ksi175 >= 1
 c177: - 51 w0 - w1 - w5 - 140 w6 - 298 w7 - w9 - 122 w12 - w13 - 4.2 w14
       - 2 w15 - 3 w16 - w19 - b + ksi176 >= 1
 c178: - 46 w0 - w1 - w4 - 150 w6 - 231 w7 - w9 - 147 w12 - 3.6 w14 - 2 w15
       - w17 - b + ksi177 >= 1
 c179: - 67 w0 - w1 - w5 - 125 w6 - 254 w7 - w8 - w9 - 163 w12 - 0.2 w14
       - 2 w15 - 2 w16 - w19 - b + ksi178 >= 1
 c180: 50 w0 + w1 + w4 + 129 w6 + 196 w7 + w9 + 163 w12 + w15 + w17 + b
       + ksi179 >= 1
 c181: 42 w0 + w1 + w4 + 120 w6 + 240 w7 + w8 + w9 + 194 w12 + 0.8 w14 + 3 w15
       + w19 + b + ksi180 >= 1
 c182: - 56 w0 - w5 - 134 w6 - 409 w7 - w11 - 150 w12 - w13 - 1.9 w14 - 2 w15
       - 2 w16 - w19 - b + ksi181 >= 1
 c183: - 41 w0 - w1 - w5 - 110 w6 - 172 w7 - w11 - 158 w12 - w15 - w19 - b
       + ksi182 >= 1
 c184: 42 w0 + w5 + 102 w6 + 265 w7 + w11 + 122 w12 + 0.6 w14 + 2 w15 + w17 + b
       + ksi183 >= 1
 c185: 53 w0 + w1 + w4 + 130 w6 + 246 w7 + w8 + w11 + 173 w12 + w15 + 3 w16
       + w17 + b + ksi184 >= 1
 c186: 43 w0 + w1 + w4 + 130 w6 + 315 w7 + w9 + 162 w12 + 1.9 w14 + w15 + w16
       + w17 + b + ksi185 >= 1
 c187: - 56 w0 - w1 - w5 - 132 w6 - 184 w7 - w11 - 105 w12 - w13 - 2.1 w14
       - 2 w15 - w16 - w18 - b + ksi186 >= 1
 c188: 52 w0 + w1 + w5 + 108 w6 + 233 w7 + w8 + w9 + 147 w12 + 0.1 w14 + w15
       + 3 w16 + w19 + b + ksi187 >= 1
 c189: 62 w0 + w5 + 140 w6 + 394 w7 + w11 + 157 w12 + 1.2 w14 + 2 w15 + w17 + b
       + ksi188 >= 1
 c190: - 70 w0 - w1 - w4 - 160 w6 - 269 w7 - w9 - 112 w12 - w13 - 2.9 w14
       - 2 w15 - w16 - w19 - b + ksi189 >= 1
 c191: 54 w0 + w1 + w5 + 140 w6 + 239 w7 + w9 + 160 w12 + 1.2 w14 + w15 + w17
       + b + ksi190 >= 1
 c192: - 70 w0 - w1 - w5 - 145 w6 - 174 w7 - w9 - 125 w12 - w13 - 2.6 w14
       - 3 w15 - w19 - b + ksi191 >= 1
 c193: 54 w0 + w1 + w3 + 108 w6 + 309 w7 + w9 + 156 w12 + w15 + w19 + b
       + ksi192 >= 1
 c194: - 35 w0 - w1 - w5 - 126 w6 - 282 w7 - w11 - 156 w12 - w13 - w15 - w19
       - b + ksi193 >= 1
 c195: 48 w0 + w1 + w4 + 124 w6 + 255 w7 + w8 + w9 + 175 w12 + w15 + 2 w16
       + w17 + b + ksi194 >= 1
 c196: 55 w0 + w3 + 135 w6 + 250 w7 + w11 + 161 w12 + 1.4 w14 + 2 w15 + w17 + b
       + ksi195 >= 1
 c197: 58 w0 + w5 + 100 w6 + 248 w7 + w11 + 122 w12 + w14 + 2 w15 + w17 + b
       + ksi196 >= 1
 c198: 54 w0 + w4 + 110 w6 + 214 w7 + w9 + 158 w12 + 1.6 w14 + 2 w15 + w17 + b
       + ksi197 >= 1
 c199: 69 w0 + w2 + 140 w6 + 239 w7 + w9 + 151 w12 + 1.8 w14 + w15 + 2 w16
       + w17 + b + ksi198 >= 1
 c200: - 77 w0 - w1 - w5 - 125 w6 - 304 w7 - w11 - 162 w12 - w13 - w15 - 3 w16
       - w17 - b + ksi199 >= 1
 c201: 68 w0 + w1 + w4 + 118 w6 + 277 w7 + w9 + 151 w12 + w14 + w15 + w16 + w19
       + b + ksi200 >= 1
 c202: - 58 w0 - w1 - w5 - 125 w6 - 300 w7 - w11 - 171 w12 - w15 - 2 w16 - w19
       - b + ksi201 >= 1
 c203: - 60 w0 - w1 - w5 - 125 w6 - 258 w7 - w11 - 141 w12 - w13 - 2.8 w14
       - 2 w15 - w16 - w19 - b + ksi202 >= 1
 c204: - 51 w0 - w1 - w5 - 140 w6 - 299 w7 - w9 - 173 w12 - w13 - 1.6 w14 - w15
       - w19 - b + ksi203 >= 1
 c205: - 55 w0 - w1 - w5 - 160 w6 - 289 w7 - w11 - 145 w12 - w13 - 0.8 w14
       - 2 w15 - w16 - w19 - b + ksi204 >= 1
 c206: 52 w0 + w1 + w2 + 152 w6 + 298 w7 + w8 + w9 + 178 w12 + 1.2 w14 + 2 w15
       + w19 + b + ksi205 >= 1
 c207: 60 w0 + w4 + 102 w6 + 318 w7 + w9 + 160 w12 + w15 + w16 + w17 + b
       + ksi206 >= 1
 c208: 58 w0 + w1 + w4 + 105 w6 + 240 w7 + w11 + 154 w12 + w13 + 0.6 w14
       + 2 w15 + w19 + b + ksi207 >= 1
 c209: - 64 w0 - w1 - w4 - 125 w6 - 309 w7 - w9 - 131 w12 - w13 - 1.8 w14
       - 2 w15 - w19 - b + ksi208 >= 1
 c210: 37 w0 + w1 + w4 + 130 w6 + 250 w7 + w9 + 187 w12 + 3.5 w14 + 3 w15 + w17
       + b + ksi209 >= 1
 c211: - 59 w0 - w1 - w2 - 170 w6 - 288 w7 - w11 - 159 w12 - 0.2 w14 - 2 w15
       - w19 - b + ksi210 >= 1
 c212: 51 w0 + w1 + w4 + 125 w6 + 245 w7 + w8 + w11 + 166 w12 + 2.4 w14 + 2 w15
       + w17 + b + ksi211 >= 1
 c213: 43 w0 + w4 + 122 w6 + 213 w7 + w9 + 165 w12 + 0.2 w14 + 2 w15 + w17 + b
       + ksi212 >= 1
 c214: - 58 w0 - w1 - w5 - 128 w6 - 216 w7 - w11 - 131 w12 - w13 - 2.2 w14
       - 2 w15 - 3 w16 - w19 - b + ksi213 >= 1
 c215: 29 w0 + w1 + w3 + 130 w6 + 204 w7 + w11 + 202 w12 + w15 + w17 + b
       + ksi214 >= 1
 c216: 41 w0 + w3 + 130 w6 + 204 w7 + w11 + 172 w12 + 1.4 w14 + w15 + w17 + b
       + ksi215 >= 1
 c217: 63 w0 + w4 + 135 w6 + 252 w7 + w11 + 172 w12 + w15 + w17 + b + ksi216
       >= 1
 c218: 51 w0 + w1 + w4 + 94 w6 + 227 w7 + w9 + 154 w12 + w13 + w15 + w16 + w19
       + b + ksi217 >= 1
 c219: 54 w0 + w1 + w4 + 120 w6 + 258 w7 + w11 + 147 w12 + 0.4 w14 + 2 w15
       + w19 + b + ksi218 >= 1
 c220: 44 w0 + w1 + w3 + 120 w6 + 220 w7 + w9 + 170 w12 + w15 + w17 + b
       + ksi219 >= 1
 c221: - 54 w0 - w1 - w5 - 110 w6 - 239 w7 - w9 - 126 w12 - w13 - 2.8 w14
       - 2 w15 - w16 - w19 - b + ksi220 >= 1
 c222: - 65 w0 - w1 - w5 - 135 w6 - 254 w7 - w11 - 127 w12 - 2.8 w14 - 2 w15
       - w16 - w19 - b + ksi221 >= 1
 c223: 57 w0 + w1 + w4 + 150 w6 + 168 w7 + w9 + 174 w12 + 1.6 w14 + w15 + w17
       + b + ksi222 >= 1
 c224: - 63 w0 - w1 - w5 - 130 w6 - 330 w7 - w8 - w11 - 132 w12 - w13 - 1.8 w14
       - w15 - 3 w16 - w19 - b + ksi223 >= 1
 c225: 35 w0 + w5 + 138 w6 + 183 w7 + w9 + 182 w12 + 1.4 w14 + w15 + w17 + b
       + ksi224 >= 1
 c226: 41 w0 + w1 + w3 + 135 w6 + 203 w7 + w9 + 132 w12 + 2 w15 + w18 + b
       + ksi225 >= 1
 c227: - 62 w0 - w4 - 130 w6 - 263 w7 - w9 - 97 w12 - 1.2 w14 - 2 w15 - w16
       - w19 - b + ksi226 >= 1
 c228: - 43 w0 - w5 - 132 w6 - 341 w7 - w8 - w11 - 136 w12 - w13 - 3 w14
       - 2 w15 - w19 - b + ksi227 >= 1
 c229: 58 w0 + w2 + 150 w6 + 283 w7 + w8 + w11 + 162 w12 + w14 + w15 + w17 + b
       + ksi228 >= 1
 c230: 52 w0 + w1 + w2 + 118 w6 + 186 w7 + w11 + 190 w12 + 2 w15 + w18 + b
       + ksi229 >= 1
 c231: - 61 w0 - w5 - 145 w6 - 307 w7 - w11 - 146 w12 - w13 - w14 - 2 w15 - w19
       - b + ksi230 >= 1
 c232: - 39 w0 - w1 - w5 - 118 w6 - 219 w7 - w9 - 140 w12 - 1.2 w14 - 2 w15
       - w19 - b + ksi231 >= 1
 c233: 45 w0 + w1 + w5 + 115 w6 + 260 w7 + w11 + 185 w12 + w15 + w17 + b
       + ksi232 >= 1
 c234: - 52 w0 - w1 - w5 - 128 w6 - 255 w7 - w9 - 161 w12 - w13 - w15 - w16
       - w19 - b + ksi233 >= 1
 c235: 62 w0 + w1 + w4 + 130 w6 + 231 w7 + w9 + 146 w12 + 1.8 w14 + 2 w15
       + 3 w16 + w19 + b + ksi234 >= 1
 c236: - 62 w0 - w5 - 160 w6 - 164 w7 - w11 - 145 w12 - 6.2 w14 - 3 w15 - 3 w16
       - w19 - b + ksi235 >= 1
 c237: 53 w0 + w5 + 138 w6 + 234 w7 + w11 + 160 w12 + w15 + w17 + b + ksi236
       >= 1
 c238: - 43 w0 - w1 - w5 - 120 w6 - 177 w7 - w11 - 120 w12 - w13 - 2.5 w14
       - 2 w15 - w19 - b + ksi237 >= 1
 c239: 47 w0 + w1 + w4 + 138 w6 + 257 w7 + w11 + 156 w12 + w15 + w17 + b
       + ksi238 >= 1
 c240: 52 w0 + w1 + w3 + 120 w6 + 325 w7 + w9 + 172 w12 + 0.2 w14 + w15 + w17
       + b + ksi239 >= 1
 c241: - 68 w0 - w1 - w4 - 180 w6 - 274 w7 - w8 - w11 - 150 w12 - w13 - 1.6 w14
       - 2 w15 - w19 - b + ksi240 >= 1
 c242: 39 w0 + w1 + w4 + 140 w6 + 321 w7 + w11 + 182 w12 + w15 + w17 + b
       + ksi241 >= 1
 c243: 53 w0 + w5 + 130 w6 + 264 w7 + w11 + 143 w12 + 0.4 w14 + 2 w15 + w17 + b
       + ksi242 >= 1
 c244: - 62 w0 - w5 - 140 w6 - 268 w7 - w11 - 160 w12 - 3.6 w14 - 3 w15 - 2 w16
       - w17 - b + ksi243 >= 1
 c245: 51 w0 + w4 + 140 w6 + 308 w7 + w11 + 142 w12 + 1.5 w14 + w15 + w16 + w17
       + b + ksi244 >= 1
 c246: - 60 w0 - w1 - w5 - 130 w6 - 253 w7 - w9 - 144 w12 - w13 - 1.4 w14 - w15
       - w16 - w19 - b + ksi245 >= 1
 c247: - 65 w0 - w1 - w5 - 110 w6 - 248 w7 - w11 - 158 w12 - 0.6 w14 - w15
       - 2 w16 - w18 - b + ksi246 >= 1
 c248: 65 w0 + w4 + 155 w6 + 269 w7 + w9 + 148 w12 + 0.8 w14 + w15 + w17 + b
       + ksi247 >= 1
 c249: - 60 w0 - w1 - w4 - 140 w6 - 185 w7 - w11 - 155 w12 - 3 w14 - 2 w15
       - w17 - b + ksi248 >= 1
 c250: - 60 w0 - w1 - w5 - 145 w6 - 282 w7 - w11 - 142 w12 - w13 - 2.8 w14
       - 2 w15 - 2 w16 - w19 - b + ksi249 >= 1
 c251: - 54 w0 - w1 - w5 - 120 w6 - 188 w7 - w9 - 113 w12 - 1.4 w14 - 2 w15
       - w16 - w19 - b + ksi250 >= 1
 c252: 44 w0 + w1 + w3 + 130 w6 + 219 w7 + w11 + 188 w12 + w15 + w17 + b
       + ksi251 >= 1
 c253: - 44 w0 - w1 - w5 - 112 w6 - 290 w7 - w11 - 153 w12 - w15 - w16 - w17
       - b + ksi252 >= 1
 c254: 51 w0 + w1 + w4 + 110 w6 + 175 w7 + w9 + 123 w12 + 0.6 w14 + w15 + w17
       + b + ksi253 >= 1
 c255: 59 w0 + w1 + w4 + 150 w6 + 212 w7 + w8 + w9 + 157 w12 + 1.6 w14 + w15
       + w17 + b + ksi254 >= 1
 c256: 71 w0 + w3 + 160 w6 + 302 w7 + w9 + 162 w12 + 0.4 w14 + w15 + 2 w16
       + w17 + b + ksi255 >= 1
 c257: 61 w0 + w1 + w4 + 150 w6 + 243 w7 + w8 + w9 + 137 w12 + w13 + w14
       + 2 w15 + w17 + b + ksi256 >= 1
 c258: - 55 w0 - w1 - w5 - 132 w6 - 353 w7 - w9 - 132 w12 - w13 - 1.2 w14
       - 2 w15 - w16 - w19 - b + ksi257 >= 1
 c259: - 64 w0 - w1 - w4 - 140 w6 - 335 w7 - w9 - 158 w12 - w15 - w17 - b
       + ksi258 >= 1
 c260: 43 w0 + w1 + w5 + 150 w6 + 247 w7 + w9 + 171 w12 + 1.5 w14 + w15 + w17
       + b + ksi259 >= 1
 c261: 58 w0 + w4 + 120 w6 + 340 w7 + w9 + 172 w12 + w15 + w17 + b + ksi260
       >= 1
 c262: - 60 w0 - w1 - w5 - 130 w6 - 206 w7 - w11 - 132 w12 - w13 - 2.4 w14
       - 2 w15 - 2 w16 - w19 - b + ksi261 >= 1
 c263: - 58 w0 - w1 - w3 - 120 w6 - 284 w7 - w11 - 160 w12 - 1.8 w14 - 2 w15
       - w17 - b + ksi262 >= 1
 c264: 49 w0 + w1 + w3 + 130 w6 + 266 w7 + w9 + 171 w12 + 0.6 w14 + w15 + w17
       + b + ksi263 >= 1
 c265: - 48 w0 - w1 - w3 - 110 w6 - 229 w7 - w9 - 168 w12 - w14 - 3 w15 - w19
       - b + ksi264 >= 1
 c266: 52 w0 + w1 + w4 + 172 w6 + 199 w7 + w8 + w9 + 162 w12 + 0.5 w14 + w15
       + w19 + b + ksi265 >= 1
 c267: 44 w0 + w1 + w3 + 120 w6 + 263 w7 + w9 + 173 w12 + w15 + w19 + b
       + ksi266 >= 1
 c268: 56 w0 + w3 + 140 w6 + 294 w7 + w11 + 153 w12 + 1.3 w14 + 2 w15 + w17 + b
       + ksi267 >= 1
 c269: 57 w0 + w1 + w5 + 140 w6 + 192 w7 + w9 + 148 w12 + 0.4 w14 + 2 w15 + w18
       + b + ksi268 >= 1
 c270: - 67 w0 - w1 - w5 - 160 w6 - 286 w7 - w11 - 108 w12 - w13 - 1.5 w14
       - 2 w15 - 3 w16 - w17 - b + ksi269 >= 1
Bounds
-1 <= b <= 1
End
